benchmarks/VRPTW/TSPTW/solution/n40w40.005.txt.solution
1 25 12 30 27 22 8 7 33 37 5 14 24 34 3 16 38 21 36 6 35 17 29 39 9 18 32 40 11 19 28 26 2 20 4 15 31 23 41 10 13 
453
